\ Model mip1
\ LP format - for model browsing. Use MPS format to capture full model detail.
Maximize
  0.68861632787892 f(x_0) + 0.711250113802359 f(x_1)
   + 0.7261526792684243 f(x_2) + 0.4675858139846463 f(x_3)
   + 0.4262946048296023 f(x_4) + 0.6982122993314765 f(x_5)
   + 0.3081126390785279 f(x_6) + 0.6316244940409792 f(x_7)
   + 0.7285366080188975 f(x_8) + 0.4101661760128962 f(x_9)
   + 0.2936362067416217 f(x_10) + 0.6022450477450976 f(x_11)
   + 0.3555085658697101 f(x_12) + 0.4476707427352945 f(x_13)
   + 0.2818745853992105 f(x_14) + 0.6127464942765932 f(x_15)
   + 0.3122492079119006 f(x_16) + 0.6846246688465476 f(x_17)
   + 0.7394929318624175 f(x_18) + 0.2545664428265222 f(x_19)
   + 0.4132110977079813 f(x_20) + 0.6116103378563662 f(x_21)
   + 0.4137002221417956 f(x_22) + 0.5679645024414155 f(x_23)
   + 0.4446145212953766 f(x_24) + 0.623504333603381 f(x_25)
   + 0.2978216061110877 f(x_26) + 0.6154767840572453 f(x_27)
   + 0.4583522134345602 f(x_28) + 0.5928335114074943 f(x_29)
   + 0.3764490577287098 f(x_30) + 0.3623463690111196 f(x_31)
   + 0.4458586861648384 f(x_32) + 0.6785664041755737 f(x_33)
   + 0.3225343913347508 f(x_34) + 0.4656352777525562 f(x_35)
   + 0.6564221825846017 f(x_36) + 0.6145124078355568 f(x_37)
   + 0.5946961648767066 f(x_38) + 0.3267857474461647 f(x_39)
   + 0.5757126176893935 f(x_40) + 0.5824972119149712 f(x_41)
   + 0.3617390060121303 f(x_42) + 0.4948011167544821 f(x_43)
   + 0.573327514703163 f(x_44) + 0.5431195413707099 f(x_45)
   + 0.3169031467037937 f(x_46) + 0.740318579220192 f(x_47)
   + 0.5129494017482713 f(x_48) + 0.6083117959065456 f(x_49)
   + 0.5149566542706933 f(x_50) + 0.3661173526702686 f(x_51)
   + 0.4161450760091291 f(x_52) + 0.6111838910405892 f(x_53)
   + 0.5476761515057851 f(x_54) + 0.6786960107539752 f(x_55)
   + 0.552546626406311 f(x_56) + 0.4771421275585838 f(x_57)
   + 0.3673887095121208 f(x_58) + 0.6480102610459222 f(x_59)
   + 0.6182731973946458 f(x_60) + 0.620889840305314 f(x_61)
   + 0.3078003011325616 f(x_62) + 0.4224604840116373 f(x_63)
   + 0.3601312566575599 f(x_64) + 0.4445591521689407 f(x_65)
   + 0.6307328545633402 f(x_66) + 0.3093632303435507 f(x_67)
   + 0.3609046141050149 f(x_68) + 0.5796274686322446 f(x_69)
   + 0.3550582803715911 f(x_70) + 0.3632065884100764 f(x_71)
   + 0.4755296513489823 f(x_72) + 0.2749099786253104 f(x_73)
   + 0.355736255605782 f(x_74) + 0.4694441397080497 f(x_75)
   + 0.4524265932465969 f(x_76) + 0.3368599236442683 f(x_77)
   + 0.5487714788452986 f(x_78) + 0.4868632489807445 f(x_79)
   + 0.3877476748586993 f(x_80) + 0.4482643929097228 f(x_81)
   + 0.395337928654703 f(x_82) + 0.2736357335046528 f(x_83)
   + 0.737469039297173 f(x_84) + 0.5921488689711142 f(x_85)
   + 0.5219861063737266 f(x_86) + 0.5006887207129032 f(x_87)
   + 0.3449385634520329 f(x_88) + 0.6142761483868671 f(x_89)
   + 0.3367723563722186 f(x_90) + 0.6160058144881311 f(x_91)
   + 0.4018464222761747 f(x_92) + 0.6963359934184024 f(x_93)
   + 0.2873596994249479 f(x_94) + 0.5158635206359646 f(x_95)
   + 0.3162588823783224 f(x_96) + 0.5647910996036625 f(x_97)
   + 0.5292976617987697 f(x_98) + 0.4876467486273253 f(x_99)
Subject To
 R0: x_0 + x_1 + x_2 + x_3 + x_4 + x_5 + x_6 + x_7 + x_8 + x_9 + x_10
   + x_11 + x_12 + x_13 + x_14 + x_15 + x_16 + x_17 + x_18 + x_19 + x_20
   + x_21 + x_22 + x_23 + x_24 + x_25 + x_26 + x_27 + x_28 + x_29 + x_30
   + x_31 + x_32 + x_33 + x_34 + x_35 + x_36 + x_37 + x_38 + x_39 + x_40
   + x_41 + x_42 + x_43 + x_44 + x_45 + x_46 + x_47 + x_48 + x_49 + x_50
   + x_51 + x_52 + x_53 + x_54 + x_55 + x_56 + x_57 + x_58 + x_59 + x_60
   + x_61 + x_62 + x_63 + x_64 + x_65 + x_66 + x_67 + x_68 + x_69 + x_70
   + x_71 + x_72 + x_73 + x_74 + x_75 + x_76 + x_77 + x_78 + x_79 + x_80
   + x_81 + x_82 + x_83 + x_84 + x_85 + x_86 + x_87 + x_88 + x_89 + x_90
   + x_91 + x_92 + x_93 + x_94 + x_95 + x_96 + x_97 + x_98 + x_99 = 5
Bounds
 x_0 <= 5
 x_1 <= 5
 x_2 <= 5
 x_3 <= 5
 x_4 <= 5
 x_5 <= 5
 x_6 <= 5
 x_7 <= 5
 x_8 <= 5
 x_9 <= 5
 x_10 <= 5
 x_11 <= 5
 x_12 <= 5
 x_13 <= 5
 x_14 <= 5
 x_15 <= 5
 x_16 <= 5
 x_17 <= 5
 x_18 <= 5
 x_19 <= 5
 x_20 <= 5
 x_21 <= 5
 x_22 <= 5
 x_23 <= 5
 x_24 <= 5
 x_25 <= 5
 x_26 <= 5
 x_27 <= 5
 x_28 <= 5
 x_29 <= 5
 x_30 <= 5
 x_31 <= 5
 x_32 <= 5
 x_33 <= 5
 x_34 <= 5
 x_35 <= 5
 x_36 <= 5
 x_37 <= 5
 x_38 <= 5
 x_39 <= 5
 x_40 <= 5
 x_41 <= 5
 x_42 <= 5
 x_43 <= 5
 x_44 <= 5
 x_45 <= 5
 x_46 <= 5
 x_47 <= 5
 x_48 <= 5
 x_49 <= 5
 x_50 <= 5
 x_51 <= 5
 x_52 <= 5
 x_53 <= 5
 x_54 <= 5
 x_55 <= 5
 x_56 <= 5
 x_57 <= 5
 x_58 <= 5
 x_59 <= 5
 x_60 <= 5
 x_61 <= 5
 x_62 <= 5
 x_63 <= 5
 x_64 <= 5
 x_65 <= 5
 x_66 <= 5
 x_67 <= 5
 x_68 <= 5
 x_69 <= 5
 x_70 <= 5
 x_71 <= 5
 x_72 <= 5
 x_73 <= 5
 x_74 <= 5
 x_75 <= 5
 x_76 <= 5
 x_77 <= 5
 x_78 <= 5
 x_79 <= 5
 x_80 <= 5
 x_81 <= 5
 x_82 <= 5
 x_83 <= 5
 x_84 <= 5
 x_85 <= 5
 x_86 <= 5
 x_87 <= 5
 x_88 <= 5
 x_89 <= 5
 x_90 <= 5
 x_91 <= 5
 x_92 <= 5
 x_93 <= 5
 x_94 <= 5
 x_95 <= 5
 x_96 <= 5
 x_97 <= 5
 x_98 <= 5
 x_99 <= 5
Generals
 x_0 x_1 x_2 x_3 x_4 x_5 x_6 x_7 x_8 x_9 x_10 x_11 x_12 x_13 x_14 x_15 x_16
 x_17 x_18 x_19 x_20 x_21 x_22 x_23 x_24 x_25 x_26 x_27 x_28 x_29 x_30 x_31
 x_32 x_33 x_34 x_35 x_36 x_37 x_38 x_39 x_40 x_41 x_42 x_43 x_44 x_45 x_46
 x_47 x_48 x_49 x_50 x_51 x_52 x_53 x_54 x_55 x_56 x_57 x_58 x_59 x_60 x_61
 x_62 x_63 x_64 x_65 x_66 x_67 x_68 x_69 x_70 x_71 x_72 x_73 x_74 x_75 x_76
 x_77 x_78 x_79 x_80 x_81 x_82 x_83 x_84 x_85 x_86 x_87 x_88 x_89 x_90 x_91
 x_92 x_93 x_94 x_95 x_96 x_97 x_98 x_99
General Constraints
 constr_x_0: f(x_0) = POW ( x_0 ^ 2 )
 constr_x_1: f(x_1) = POW ( x_1 ^ 2 )
 constr_x_2: f(x_2) = POW ( x_2 ^ 2 )
 constr_x_3: f(x_3) = POW ( x_3 ^ 2 )
 constr_x_4: f(x_4) = POW ( x_4 ^ 2 )
 constr_x_5: f(x_5) = POW ( x_5 ^ 2 )
 constr_x_6: f(x_6) = POW ( x_6 ^ 2 )
 constr_x_7: f(x_7) = POW ( x_7 ^ 2 )
 constr_x_8: f(x_8) = POW ( x_8 ^ 2 )
 constr_x_9: f(x_9) = POW ( x_9 ^ 2 )
 constr_x_10: f(x_10) = POW ( x_10 ^ 2 )
 constr_x_11: f(x_11) = POW ( x_11 ^ 2 )
 constr_x_12: f(x_12) = POW ( x_12 ^ 2 )
 constr_x_13: f(x_13) = POW ( x_13 ^ 2 )
 constr_x_14: f(x_14) = POW ( x_14 ^ 2 )
 constr_x_15: f(x_15) = POW ( x_15 ^ 2 )
 constr_x_16: f(x_16) = POW ( x_16 ^ 2 )
 constr_x_17: f(x_17) = POW ( x_17 ^ 2 )
 constr_x_18: f(x_18) = POW ( x_18 ^ 2 )
 constr_x_19: f(x_19) = POW ( x_19 ^ 2 )
 constr_x_20: f(x_20) = POW ( x_20 ^ 2 )
 constr_x_21: f(x_21) = POW ( x_21 ^ 2 )
 constr_x_22: f(x_22) = POW ( x_22 ^ 2 )
 constr_x_23: f(x_23) = POW ( x_23 ^ 2 )
 constr_x_24: f(x_24) = POW ( x_24 ^ 2 )
 constr_x_25: f(x_25) = POW ( x_25 ^ 2 )
 constr_x_26: f(x_26) = POW ( x_26 ^ 2 )
 constr_x_27: f(x_27) = POW ( x_27 ^ 2 )
 constr_x_28: f(x_28) = POW ( x_28 ^ 2 )
 constr_x_29: f(x_29) = POW ( x_29 ^ 2 )
 constr_x_30: f(x_30) = POW ( x_30 ^ 2 )
 constr_x_31: f(x_31) = POW ( x_31 ^ 2 )
 constr_x_32: f(x_32) = POW ( x_32 ^ 2 )
 constr_x_33: f(x_33) = POW ( x_33 ^ 2 )
 constr_x_34: f(x_34) = POW ( x_34 ^ 2 )
 constr_x_35: f(x_35) = POW ( x_35 ^ 2 )
 constr_x_36: f(x_36) = POW ( x_36 ^ 2 )
 constr_x_37: f(x_37) = POW ( x_37 ^ 2 )
 constr_x_38: f(x_38) = POW ( x_38 ^ 2 )
 constr_x_39: f(x_39) = POW ( x_39 ^ 2 )
 constr_x_40: f(x_40) = POW ( x_40 ^ 2 )
 constr_x_41: f(x_41) = POW ( x_41 ^ 2 )
 constr_x_42: f(x_42) = POW ( x_42 ^ 2 )
 constr_x_43: f(x_43) = POW ( x_43 ^ 2 )
 constr_x_44: f(x_44) = POW ( x_44 ^ 2 )
 constr_x_45: f(x_45) = POW ( x_45 ^ 2 )
 constr_x_46: f(x_46) = POW ( x_46 ^ 2 )
 constr_x_47: f(x_47) = POW ( x_47 ^ 2 )
 constr_x_48: f(x_48) = POW ( x_48 ^ 2 )
 constr_x_49: f(x_49) = POW ( x_49 ^ 2 )
 constr_x_50: f(x_50) = POW ( x_50 ^ 2 )
 constr_x_51: f(x_51) = POW ( x_51 ^ 2 )
 constr_x_52: f(x_52) = POW ( x_52 ^ 2 )
 constr_x_53: f(x_53) = POW ( x_53 ^ 2 )
 constr_x_54: f(x_54) = POW ( x_54 ^ 2 )
 constr_x_55: f(x_55) = POW ( x_55 ^ 2 )
 constr_x_56: f(x_56) = POW ( x_56 ^ 2 )
 constr_x_57: f(x_57) = POW ( x_57 ^ 2 )
 constr_x_58: f(x_58) = POW ( x_58 ^ 2 )
 constr_x_59: f(x_59) = POW ( x_59 ^ 2 )
 constr_x_60: f(x_60) = POW ( x_60 ^ 2 )
 constr_x_61: f(x_61) = POW ( x_61 ^ 2 )
 constr_x_62: f(x_62) = POW ( x_62 ^ 2 )
 constr_x_63: f(x_63) = POW ( x_63 ^ 2 )
 constr_x_64: f(x_64) = POW ( x_64 ^ 2 )
 constr_x_65: f(x_65) = POW ( x_65 ^ 2 )
 constr_x_66: f(x_66) = POW ( x_66 ^ 2 )
 constr_x_67: f(x_67) = POW ( x_67 ^ 2 )
 constr_x_68: f(x_68) = POW ( x_68 ^ 2 )
 constr_x_69: f(x_69) = POW ( x_69 ^ 2 )
 constr_x_70: f(x_70) = POW ( x_70 ^ 2 )
 constr_x_71: f(x_71) = POW ( x_71 ^ 2 )
 constr_x_72: f(x_72) = POW ( x_72 ^ 2 )
 constr_x_73: f(x_73) = POW ( x_73 ^ 2 )
 constr_x_74: f(x_74) = POW ( x_74 ^ 2 )
 constr_x_75: f(x_75) = POW ( x_75 ^ 2 )
 constr_x_76: f(x_76) = POW ( x_76 ^ 2 )
 constr_x_77: f(x_77) = POW ( x_77 ^ 2 )
 constr_x_78: f(x_78) = POW ( x_78 ^ 2 )
 constr_x_79: f(x_79) = POW ( x_79 ^ 2 )
 constr_x_80: f(x_80) = POW ( x_80 ^ 2 )
 constr_x_81: f(x_81) = POW ( x_81 ^ 2 )
 constr_x_82: f(x_82) = POW ( x_82 ^ 2 )
 constr_x_83: f(x_83) = POW ( x_83 ^ 2 )
 constr_x_84: f(x_84) = POW ( x_84 ^ 2 )
 constr_x_85: f(x_85) = POW ( x_85 ^ 2 )
 constr_x_86: f(x_86) = POW ( x_86 ^ 2 )
 constr_x_87: f(x_87) = POW ( x_87 ^ 2 )
 constr_x_88: f(x_88) = POW ( x_88 ^ 2 )
 constr_x_89: f(x_89) = POW ( x_89 ^ 2 )
 constr_x_90: f(x_90) = POW ( x_90 ^ 2 )
 constr_x_91: f(x_91) = POW ( x_91 ^ 2 )
 constr_x_92: f(x_92) = POW ( x_92 ^ 2 )
 constr_x_93: f(x_93) = POW ( x_93 ^ 2 )
 constr_x_94: f(x_94) = POW ( x_94 ^ 2 )
 constr_x_95: f(x_95) = POW ( x_95 ^ 2 )
 constr_x_96: f(x_96) = POW ( x_96 ^ 2 )
 constr_x_97: f(x_97) = POW ( x_97 ^ 2 )
 constr_x_98: f(x_98) = POW ( x_98 ^ 2 )
 constr_x_99: f(x_99) = POW ( x_99 ^ 2 )
End
